0,1,2,3,4,4,4,4,4,5,6,6,7,7,7,7,8,8,8,8,9,10,10,11,11,12,12,12,12,12,13,13,13,13,14,14,15,16,17,17,18,19,19,19,20,20,20,20,21,21,22,23,24,24,25,27,28,29,31,32,34,35,35,36,37,37,37,38,38,38,39,40,40,41,41,41,41,42,42,42,42,43,43,44,46,47,50,51,52,53,53,54,55,55,56,57,57,58,60,61,62,63,63,65,67,71,71,72,75,76,77,79,81,83,84,84,84,87,87,88,90,91,91,92,94,95,96,97,98,98,99,99,100,103,106,107,107,107,108,108,109,111